# Objective value = 292.5
FairSkew 0.1875
S_0 0
S_1 0
S_2 0
S_3 0
S_4 1
S_5 1
S_6 0
S_7 0
S_8 1
S_9 0
S_10 0
S_11 0
S_12 0
S_13 0
S_14 0
S_15 0
S_16 0
FairCross 0
w_0_0 0
y_1_0_3 0
y_1_0_4 0
y_1_0_5 1
y_1_0_6 0
y_1_0_7 0
y_1_0_8 0
y_1_3_4 0
y_1_3_5 0
y_1_3_6 0
y_1_3_7 0
y_1_3_8 0
y_1_4_5 0
y_1_4_6 0
y_1_4_7 0
y_1_4_8 0
y_1_5_6 0
y_1_5_7 0
y_1_5_8 0
y_1_6_7 0
y_1_6_8 0
y_1_7_8 0
w_1_0 2
w_1_3 0
w_1_4 0
w_1_5 0
w_1_6 0
w_1_7 0
w_1_8 0
y_2_0_3 0
y_2_0_4 0
y_2_0_5 0
y_2_0_6 0
y_2_0_7 0
y_2_0_8 0
y_2_3_4 0
y_2_3_5 0
y_2_3_6 0
y_2_3_7 0
y_2_3_8 0
y_2_4_5 0
y_2_4_6 0
y_2_4_7 0
y_2_4_8 0
y_2_5_6 0
y_2_5_7 0
y_2_5_8 0
y_2_6_7 0
y_2_6_8 0
y_2_7_8 0
w_2_0 0
w_2_3 0
w_2_4 0
w_2_5 0
w_2_6 0
w_2_7 0
w_2_8 0
y_3_0_3 0
y_3_0_4 0
y_3_0_5 1
y_3_0_6 0
y_3_0_7 0
y_3_0_8 0
y_3_3_4 0
y_3_3_5 0
y_3_3_6 0
y_3_3_7 0
y_3_3_8 0
y_3_4_5 0
y_3_4_6 0
y_3_4_7 0
y_3_4_8 0
y_3_5_6 0
y_3_5_7 0
y_3_5_8 0
y_3_6_7 0
y_3_6_8 0
y_3_7_8 0
w_3_0 1
w_3_3 0
w_3_4 0
w_3_5 1
w_3_6 0
w_3_7 0
w_3_8 0
y_4_0_3 0
y_4_0_4 0
y_4_0_5 0
y_4_0_6 0
y_4_0_7 0
y_4_0_8 0
y_4_3_4 0
y_4_3_5 0
y_4_3_6 0
y_4_3_7 0
y_4_3_8 0
y_4_4_5 0
y_4_4_6 0
y_4_4_7 0
y_4_4_8 0
y_4_5_6 0
y_4_5_7 0
y_4_5_8 0
y_4_6_7 0
y_4_6_8 0
y_4_7_8 0
w_4_0 0
w_4_3 0
w_4_4 0
w_4_5 0
w_4_6 0
w_4_7 0
w_4_8 0
y_5_0_3 0
y_5_0_4 0
y_5_0_5 0
y_5_0_6 0
y_5_0_7 0
y_5_0_8 0
y_5_3_4 0
y_5_3_5 0
y_5_3_6 0
y_5_3_7 0
y_5_3_8 0
y_5_4_5 0
y_5_4_6 0
y_5_4_7 0
y_5_4_8 0
y_5_5_6 0
y_5_5_7 0
y_5_5_8 0
y_5_6_7 0
y_5_6_8 0
y_5_7_8 0
w_5_0 0
w_5_3 0
w_5_4 0
w_5_5 0
w_5_6 0
w_5_7 0
w_5_8 0
y_6_0_3 0
y_6_0_4 0
y_6_0_5 0
y_6_0_6 0
y_6_0_7 0
y_6_0_8 0
y_6_3_4 0
y_6_3_5 1
y_6_3_6 0
y_6_3_7 0
y_6_3_8 1
y_6_4_5 1
y_6_4_6 0
y_6_4_7 0
y_6_4_8 0
y_6_5_6 1
y_6_5_7 0
y_6_5_8 1
y_6_6_7 0
y_6_6_8 1
y_6_7_8 1
w_6_0 0
w_6_3 0
w_6_4 1
w_6_5 4
w_6_6 0
w_6_7 1
w_6_8 4
y_7_0_3 0
y_7_0_4 1
y_7_0_5 1
y_7_0_6 0
y_7_0_7 0
y_7_0_8 0
y_7_3_4 0
y_7_3_5 1
y_7_3_6 0
y_7_3_7 0
y_7_3_8 1
y_7_4_5 1
y_7_4_6 0
y_7_4_7 0
y_7_4_8 0
y_7_5_6 1
y_7_5_7 0
y_7_5_8 1
y_7_6_7 0
y_7_6_8 1
y_7_7_8 0
w_7_0 2
w_7_3 0
w_7_4 0
w_7_5 5
w_7_6 0
w_7_7 0
w_7_8 3
y_8_3_4 0
y_8_3_5 0
y_8_3_6 0
y_8_3_7 0
y_8_3_8 0
y_8_4_5 1
y_8_4_6 0
y_8_4_7 0
y_8_4_8 0
y_8_5_6 0
y_8_5_7 0
y_8_5_8 0
y_8_6_7 0
y_8_6_8 0
y_8_7_8 0
w_8_3 0
w_8_4 0
w_8_5 2
w_8_6 0
w_8_7 0
w_8_8 0
y_9_3_4 0
y_9_3_5 0
y_9_3_6 0
y_9_3_7 0
y_9_3_8 0
y_9_4_5 0
y_9_4_6 0
y_9_4_7 0
y_9_4_8 0
y_9_5_6 0
y_9_5_7 0
y_9_5_8 0
y_9_6_7 0
y_9_6_8 0
y_9_7_8 1
w_9_3 0
w_9_4 0
w_9_5 0
w_9_6 0
w_9_7 1
w_9_8 2
y_10_3_4 0
y_10_3_5 0
y_10_3_6 0
y_10_3_7 0
y_10_3_8 0
y_10_3_9 0
y_10_4_5 0
y_10_4_6 0
y_10_4_7 0
y_10_4_8 0
y_10_4_9 0
y_10_5_6 0
y_10_5_7 0
y_10_5_8 0
y_10_5_9 0
y_10_6_7 0
y_10_6_8 0
y_10_6_9 0
y_10_7_8 0
y_10_7_9 0
y_10_8_9 0
w_10_3 0
w_10_4 0
w_10_5 0
w_10_6 0
w_10_7 0
w_10_8 0
w_10_9 0
y_11_3_4 0
y_11_3_5 0
y_11_3_7 0
y_11_3_8 0
y_11_3_9 0
y_11_4_5 0
y_11_4_7 0
y_11_4_8 0
y_11_4_9 0
y_11_5_7 0
y_11_5_8 0
y_11_5_9 0
y_11_7_8 0
y_11_7_9 0
y_11_8_9 1
w_11_3 0
w_11_4 0
w_11_5 0
w_11_7 1
w_11_8 2
w_11_9 0
y_12_3_4 0
y_12_3_5 0
y_12_3_7 0
y_12_3_8 0
y_12_3_9 0
y_12_4_5 0
y_12_4_7 0
y_12_4_8 0
y_12_4_9 0
y_12_5_7 0
y_12_5_8 0
y_12_5_9 0
y_12_7_8 0
y_12_7_9 0
y_12_8_9 0
w_12_3 0
w_12_4 0
w_12_5 0
w_12_7 1
w_12_8 0
w_12_9 0
y_13_3_4 0
y_13_3_5 0
y_13_3_7 0
y_13_3_8 0
y_13_3_9 0
y_13_4_5 0
y_13_4_7 0
y_13_4_8 0
y_13_4_9 0
y_13_5_7 0
y_13_5_8 0
y_13_5_9 0
y_13_7_8 0
y_13_7_9 0
y_13_8_9 0
w_13_3 0
w_13_4 0
w_13_5 0
w_13_7 0
w_13_8 0
w_13_9 0
y_14_3_4 0
y_14_3_5 0
y_14_3_7 0
y_14_3_8 0
y_14_3_9 0
y_14_4_5 0
y_14_4_7 0
y_14_4_8 0
y_14_4_9 0
y_14_5_7 0
y_14_5_8 0
y_14_5_9 0
y_14_7_8 0
y_14_7_9 0
y_14_8_9 0
w_14_3 0
w_14_4 0
w_14_5 0
w_14_7 0
w_14_8 0
w_14_9 0
y_15_3_4 0
y_15_3_5 0
y_15_3_7 0
y_15_3_8 0
y_15_3_9 0
y_15_4_5 0
y_15_4_7 0
y_15_4_8 0
y_15_4_9 0
y_15_5_7 0
y_15_5_8 0
y_15_5_9 0
y_15_7_8 0
y_15_7_9 0
y_15_8_9 0
w_15_3 0
w_15_4 0
w_15_5 0
w_15_7 0
w_15_8 0
w_15_9 0
y_16_3_4 1
y_16_3_5 1
y_16_3_7 0
y_16_3_8 0
y_16_3_9 0
y_16_4_5 0
y_16_4_7 0
y_16_4_8 0
y_16_4_9 0
y_16_5_7 0
y_16_5_8 0
y_16_5_9 0
y_16_7_8 1
y_16_7_9 0
y_16_8_9 0
w_16_3 3
w_16_4 0
w_16_5 0
w_16_7 0
w_16_8 2
w_16_9 0
y_17_3_4 0
y_17_3_5 0
y_17_3_7 0
y_17_3_8 0
y_17_3_9 0
y_17_3_10 0
y_17_4_5 0
y_17_4_7 0
y_17_4_8 0
y_17_4_9 0
y_17_4_10 0
y_17_5_7 0
y_17_5_8 0
y_17_5_9 0
y_17_5_10 0
y_17_7_8 0
y_17_7_9 0
y_17_7_10 0
y_17_8_9 0
y_17_8_10 0
y_17_9_10 0
w_17_3 0
w_17_4 0
w_17_5 0
w_17_7 0
w_17_8 0
w_17_9 0
w_17_10 0
y_18_3_4 0
y_18_3_5 0
y_18_3_7 0
y_18_3_8 0
y_18_3_9 0
y_18_3_10 0
y_18_4_5 0
y_18_4_7 0
y_18_4_8 0
y_18_4_9 0
y_18_4_10 0
y_18_5_7 0
y_18_5_8 0
y_18_5_9 0
y_18_5_10 0
y_18_7_8 0
y_18_7_9 0
y_18_7_10 0
y_18_8_9 0
y_18_8_10 0
y_18_9_10 0
w_18_3 0
w_18_4 0
w_18_5 0
w_18_7 0
w_18_8 0
w_18_9 0
w_18_10 0
y_19_3_4 0
y_19_3_5 0
y_19_3_7 0
y_19_3_8 0
y_19_3_9 0
y_19_3_11 0
y_19_4_5 0
y_19_4_7 0
y_19_4_8 0
y_19_4_9 0
y_19_4_11 0
y_19_5_7 0
y_19_5_8 0
y_19_5_9 0
y_19_5_11 0
y_19_7_8 0
y_19_7_9 0
y_19_7_11 0
y_19_8_9 0
y_19_8_11 0
y_19_9_11 0
w_19_3 1
w_19_4 0
w_19_5 0
w_19_7 0
w_19_8 0
w_19_9 1
w_19_11 1
y_20_3_4 1
y_20_3_5 1
y_20_3_7 0
y_20_3_8 0
y_20_3_9 0
y_20_3_11 0
y_20_4_5 0
y_20_4_7 0
y_20_4_8 0
y_20_4_9 0
y_20_4_11 0
y_20_5_7 0
y_20_5_8 0
y_20_5_9 0
y_20_5_11 0
y_20_7_8 1
y_20_7_9 0
y_20_7_11 0
y_20_8_9 1
y_20_8_11 1
y_20_9_11 0
w_20_3 4
w_20_4 0
w_20_5 0
w_20_7 0
w_20_8 4
w_20_9 0
w_20_11 0
y_21_3_4 0
y_21_3_5 0
y_21_3_7 0
y_21_3_8 0
y_21_3_9 0
y_21_3_11 0
y_21_4_5 0
y_21_4_7 0
y_21_4_8 0
y_21_4_9 0
y_21_4_11 0
y_21_5_7 0
y_21_5_8 0
y_21_5_9 0
y_21_5_11 0
y_21_7_8 0
y_21_7_9 0
y_21_7_11 0
y_21_8_9 0
y_21_8_11 0
y_21_9_11 0
w_21_3 0
w_21_4 1
w_21_5 1
w_21_7 0
w_21_8 0
w_21_9 0
w_21_11 0
y_22_3_4 0
y_22_3_5 0
y_22_3_7 0
y_22_3_8 0
y_22_3_11 0
y_22_3_13 0
y_22_4_5 0
y_22_4_7 0
y_22_4_8 0
y_22_4_11 0
y_22_4_13 0
y_22_5_7 0
y_22_5_8 0
y_22_5_11 0
y_22_5_13 0
y_22_7_8 0
y_22_7_11 0
y_22_7_13 0
y_22_8_11 1
y_22_8_13 0
y_22_11_13 0
w_22_3 0
w_22_4 0
w_22_5 0
w_22_7 0
w_22_8 2
w_22_11 0
w_22_13 0
y_23_3_4 0
y_23_3_5 0
y_23_3_7 0
y_23_3_8 0
y_23_3_11 0
y_23_3_13 0
y_23_4_5 0
y_23_4_7 0
y_23_4_8 0
y_23_4_11 0
y_23_4_13 1
y_23_5_7 0
y_23_5_8 0
y_23_5_11 0
y_23_5_13 1
y_23_7_8 0
y_23_7_11 0
y_23_7_13 0
y_23_8_11 0
y_23_8_13 0
y_23_11_13 0
w_23_3 0
w_23_4 1
w_23_5 1
w_23_7 0
w_23_8 0
w_23_11 0
w_23_13 2
y_24_3_4 0
y_24_3_5 1
y_24_3_7 0
y_24_3_8 0
y_24_3_11 0
y_24_3_13 0
y_24_4_5 0
y_24_4_7 0
y_24_4_8 0
y_24_4_11 0
y_24_4_13 0
y_24_5_7 0
y_24_5_8 0
y_24_5_11 0
y_24_5_13 0
y_24_7_8 0
y_24_7_11 0
y_24_7_13 0
y_24_8_11 0
y_24_8_13 0
y_24_11_13 0
w_24_3 1
w_24_4 0
w_24_5 1
w_24_7 0
w_24_8 0
w_24_11 0
w_24_13 0
y_25_3_4 0
y_25_3_5 0
y_25_3_7 0
y_25_3_8 0
y_25_3_11 0
y_25_3_13 0
y_25_4_5 0
y_25_4_7 0
y_25_4_8 0
y_25_4_11 0
y_25_4_13 0
y_25_5_7 0
y_25_5_8 0
y_25_5_11 0
y_25_5_13 0
y_25_7_8 0
y_25_7_11 0
y_25_7_13 0
y_25_8_11 0
y_25_8_13 0
y_25_11_13 0
w_25_3 0
w_25_4 0
w_25_5 0
w_25_7 0
w_25_8 0
w_25_11 0
w_25_13 0
y_26_3_4 0
y_26_3_5 0
y_26_3_7 0
y_26_3_8 0
y_26_3_11 0
y_26_3_13 0
y_26_4_5 0
y_26_4_7 0
y_26_4_8 0
y_26_4_11 0
y_26_4_13 0
y_26_5_7 0
y_26_5_8 0
y_26_5_11 0
y_26_5_13 0
y_26_7_8 0
y_26_7_11 0
y_26_7_13 0
y_26_8_11 0
y_26_8_13 0
y_26_11_13 0
w_26_3 0
w_26_4 0
w_26_5 0
w_26_7 0
w_26_8 0
w_26_11 0
w_26_13 0
y_27_3_4 1
y_27_3_5 0
y_27_3_7 0
y_27_3_8 0
y_27_3_11 0
y_27_3_13 0
y_27_4_5 0
y_27_4_7 0
y_27_4_8 0
y_27_4_11 0
y_27_4_13 0
y_27_5_7 0
y_27_5_8 0
y_27_5_11 0
y_27_5_13 0
y_27_7_8 0
y_27_7_11 0
y_27_7_13 0
y_27_8_11 0
y_27_8_13 0
y_27_11_13 0
w_27_3 1
w_27_4 1
w_27_5 0
w_27_7 0
w_27_8 0
w_27_11 0
w_27_13 0
y_28_4_5 0
y_28_4_7 0
y_28_4_8 0
y_28_4_11 0
y_28_4_13 0
y_28_5_7 0
y_28_5_8 0
y_28_5_11 0
y_28_5_13 0
y_28_7_8 0
y_28_7_11 0
y_28_7_13 0
y_28_8_11 0
y_28_8_13 0
y_28_11_13 0
w_28_4 0
w_28_5 0
w_28_7 0
w_28_8 0
w_28_11 0
w_28_13 1
y_29_4_5 0
y_29_4_7 0
y_29_4_8 0
y_29_4_11 0
y_29_4_13 0
y_29_5_7 0
y_29_5_8 0
y_29_5_11 0
y_29_5_13 0
y_29_7_8 0
y_29_7_11 0
y_29_7_13 0
y_29_8_11 0
y_29_8_13 0
y_29_11_13 0
w_29_4 0
w_29_5 0
w_29_7 0
w_29_8 0
w_29_11 1
w_29_13 0
y_30_4_5 0
y_30_4_7 0
y_30_4_8 0
y_30_4_11 0
y_30_4_13 0
y_30_5_7 0
y_30_5_8 0
y_30_5_11 0
y_30_5_13 0
y_30_7_8 0
y_30_7_11 0
y_30_7_13 0
y_30_8_11 0
y_30_8_13 0
y_30_11_13 0
w_30_4 0
w_30_5 0
w_30_7 0
w_30_8 0
w_30_11 1
w_30_13 0
y_31_4_5 0
y_31_4_7 0
y_31_4_8 0
y_31_4_13 0
y_31_5_7 0
y_31_5_8 0
y_31_5_13 0
y_31_7_8 0
y_31_7_13 0
y_31_8_13 0
w_31_4 0
w_31_5 0
w_31_7 0
w_31_8 0
w_31_13 0
y_32_4_5 0
y_32_4_7 0
y_32_4_8 0
y_32_4_13 0
y_32_5_7 0
y_32_5_8 0
y_32_5_13 0
y_32_7_8 0
y_32_7_13 0
y_32_8_13 0
w_32_4 0
w_32_5 0
w_32_7 0
w_32_8 0
w_32_13 0
y_33_5_7 0
y_33_5_8 0
y_33_5_13 0
y_33_7_8 0
y_33_7_13 0
y_33_8_13 0
w_33_5 0
w_33_7 0
w_33_8 0
w_33_13 1
y_34_5_7 0
y_34_5_8 0
y_34_5_13 0
y_34_7_8 0
y_34_7_13 0
y_34_8_13 0
w_34_5 0
w_34_7 0
w_34_8 0
w_34_13 0
y_35_5_7 0
y_35_5_8 0
y_35_5_13 0
y_35_7_8 0
y_35_7_13 0
y_35_8_13 0
w_35_5 0
w_35_7 0
w_35_8 0
w_35_13 0
y_36_5_7 0
y_36_5_8 0
y_36_5_13 1
y_36_5_16 0
y_36_7_8 0
y_36_7_13 0
y_36_7_16 0
y_36_8_13 0
y_36_8_16 0
y_36_13_16 0
w_36_5 1
w_36_7 0
w_36_8 0
w_36_13 1
w_36_16 0
y_37_5_7 0
y_37_5_8 0
y_37_5_16 0
y_37_7_8 0
y_37_7_16 0
y_37_8_16 0
w_37_5 1
w_37_7 0
w_37_8 0
w_37_16 0
FairWiggle 0
x_1_0_3 0
x_2_0_3 0
beta_1_0_3 1
x_1_0_4 0
x_2_0_4 0
beta_1_0_4 1
x_1_0_5 0
x_2_0_5 1
beta_1_0_5 0
x_1_0_6 0
x_2_0_6 0
beta_1_0_6 1
x_1_0_7 0
x_2_0_7 0
beta_1_0_7 1
x_1_0_8 0
x_2_0_8 0
beta_1_0_8 1
x_1_3_4 1
x_2_3_4 1
beta_1_3_4 0
x_1_3_5 1
x_2_3_5 1
beta_1_3_5 0
x_1_3_6 0
x_2_3_6 0
beta_1_3_6 1
x_1_3_7 0
x_2_3_7 0
beta_1_3_7 1
x_1_3_8 0
x_2_3_8 0
beta_1_3_8 1
x_1_4_5 1
x_2_4_5 1
beta_1_4_5 0
x_1_4_6 0
x_2_4_6 0
beta_1_4_6 1
x_1_4_7 0
x_2_4_7 0
beta_1_4_7 1
x_1_4_8 0
x_2_4_8 0
beta_1_4_8 1
x_1_5_6 0
x_2_5_6 0
beta_1_5_6 1
x_1_5_7 0
x_2_5_7 0
beta_1_5_7 1
x_1_5_8 0
x_2_5_8 0
beta_1_5_8 1
x_1_6_7 0
x_2_6_7 0
beta_1_6_7 1
x_1_6_8 0
x_2_6_8 0
beta_1_6_8 1
x_1_7_8 0
x_2_7_8 0
beta_1_7_8 1
x_3_0_3 0
beta_2_0_3 1
x_3_0_4 0
beta_2_0_4 1
x_3_0_5 1
beta_2_0_5 0
x_3_0_6 0
beta_2_0_6 1
x_3_0_7 0
beta_2_0_7 1
x_3_0_8 0
beta_2_0_8 1
x_3_3_4 1
beta_2_3_4 0
x_3_3_5 1
beta_2_3_5 0
x_3_3_6 0
beta_2_3_6 1
x_3_3_7 0
beta_2_3_7 1
x_3_3_8 0
beta_2_3_8 1
x_3_4_5 1
beta_2_4_5 0
x_3_4_6 0
beta_2_4_6 1
x_3_4_7 0
beta_2_4_7 1
x_3_4_8 0
beta_2_4_8 1
x_3_5_6 0
beta_2_5_6 1
x_3_5_7 0
beta_2_5_7 1
x_3_5_8 0
beta_2_5_8 1
x_3_6_7 0
beta_2_6_7 1
x_3_6_8 0
beta_2_6_8 1
x_3_7_8 0
beta_2_7_8 1
x_4_0_3 0
beta_3_0_3 1
x_4_0_4 0
beta_3_0_4 1
x_4_0_5 0
beta_3_0_5 0
x_4_0_6 0
beta_3_0_6 1
x_4_0_7 0
beta_3_0_7 1
x_4_0_8 0
beta_3_0_8 1
x_4_3_4 1
beta_3_3_4 0
x_4_3_5 1
beta_3_3_5 0
x_4_3_6 0
beta_3_3_6 1
x_4_3_7 0
beta_3_3_7 1
x_4_3_8 0
beta_3_3_8 1
x_4_4_5 1
beta_3_4_5 0
x_4_4_6 0
beta_3_4_6 1
x_4_4_7 0
beta_3_4_7 1
x_4_4_8 0
beta_3_4_8 1
x_4_5_6 0
beta_3_5_6 1
x_4_5_7 0
beta_3_5_7 1
x_4_5_8 0
beta_3_5_8 1
x_4_6_7 0
beta_3_6_7 1
x_4_6_8 0
beta_3_6_8 1
x_4_7_8 0
beta_3_7_8 1
x_5_0_3 0
beta_4_0_3 1
x_5_0_4 0
beta_4_0_4 1
x_5_0_5 0
beta_4_0_5 1
x_5_0_6 0
beta_4_0_6 1
x_5_0_7 0
beta_4_0_7 1
x_5_0_8 0
beta_4_0_8 1
x_5_3_4 1
beta_4_3_4 0
x_5_3_5 1
beta_4_3_5 0
x_5_3_6 0
beta_4_3_6 1
x_5_3_7 0
beta_4_3_7 1
x_5_3_8 0
beta_4_3_8 1
x_5_4_5 1
beta_4_4_5 0
x_5_4_6 0
beta_4_4_6 1
x_5_4_7 0
beta_4_4_7 1
x_5_4_8 0
beta_4_4_8 1
x_5_5_6 0
beta_4_5_6 1
x_5_5_7 0
beta_4_5_7 1
x_5_5_8 0
beta_4_5_8 1
x_5_6_7 0
beta_4_6_7 1
x_5_6_8 0
beta_4_6_8 1
x_5_7_8 0
beta_4_7_8 1
x_6_0_3 0
beta_5_0_3 1
x_6_0_4 0
beta_5_0_4 1
x_6_0_5 0
beta_5_0_5 1
x_6_0_6 0
beta_5_0_6 1
x_6_0_7 0
beta_5_0_7 1
x_6_0_8 0
beta_5_0_8 1
x_6_3_4 1
beta_5_3_4 0
x_6_3_5 1
beta_5_3_5 0
x_6_3_6 0
beta_5_3_6 1
x_6_3_7 0
beta_5_3_7 1
x_6_3_8 0
beta_5_3_8 1
x_6_4_5 1
beta_5_4_5 0
x_6_4_6 0
beta_5_4_6 1
x_6_4_7 0
beta_5_4_7 1
x_6_4_8 0
beta_5_4_8 1
x_6_5_6 0
beta_5_5_6 1
x_6_5_7 0
beta_5_5_7 1
x_6_5_8 0
beta_5_5_8 1
x_6_6_7 0
beta_5_6_7 1
x_6_6_8 0
beta_5_6_8 1
x_6_7_8 0
beta_5_7_8 1
x_7_0_3 0
beta_6_0_3 1
x_7_0_4 0
beta_6_0_4 1
x_7_0_5 0
beta_6_0_5 1
x_7_0_6 0
beta_6_0_6 1
x_7_0_7 0
beta_6_0_7 1
x_7_0_8 0
beta_6_0_8 1
x_7_3_4 1
beta_6_3_4 0
x_7_3_5 0
beta_6_3_5 0
x_7_3_6 0
beta_6_3_6 1
x_7_3_7 0
beta_6_3_7 1
x_7_3_8 1
beta_6_3_8 0
x_7_4_5 0
beta_6_4_5 0
x_7_4_6 0
beta_6_4_6 1
x_7_4_7 0
beta_6_4_7 1
x_7_4_8 0
beta_6_4_8 1
x_7_5_6 1
beta_6_5_6 0
x_7_5_7 0
beta_6_5_7 1
x_7_5_8 1
beta_6_5_8 0
x_7_6_7 0
beta_6_6_7 1
x_7_6_8 1
beta_6_6_8 0
x_7_7_8 1
beta_6_7_8 0
x_8_0_3 0
beta_7_0_3 1
x_8_0_4 1
beta_7_0_4 0
x_8_0_5 1
beta_7_0_5 0
x_8_0_6 0
beta_7_0_6 1
x_8_0_7 0
beta_7_0_7 1
x_8_0_8 0
beta_7_0_8 1
x_8_3_4 1
beta_7_3_4 0
x_8_3_5 1
beta_7_3_5 0
x_8_3_6 0
beta_7_3_6 1
x_8_3_7 0
beta_7_3_7 1
x_8_3_8 0
beta_7_3_8 0
x_8_4_5 1
beta_7_4_5 0
x_8_4_6 0
beta_7_4_6 1
x_8_4_7 0
beta_7_4_7 1
x_8_4_8 0
beta_7_4_8 1
x_8_5_6 0
beta_7_5_6 0
x_8_5_7 0
beta_7_5_7 1
x_8_5_8 0
beta_7_5_8 0
x_8_6_7 0
beta_7_6_7 1
x_8_6_8 0
beta_7_6_8 0
x_8_7_8 1
beta_7_7_8 0
x_9_3_4 1
beta_8_3_4 0
x_9_3_5 1
beta_8_3_5 0
x_9_3_6 0
beta_8_3_6 1
x_9_3_7 0
beta_8_3_7 1
x_9_3_8 0
beta_8_3_8 1
x_9_4_5 0
beta_8_4_5 0
x_9_4_6 0
beta_8_4_6 1
x_9_4_7 0
beta_8_4_7 1
x_9_4_8 0
beta_8_4_8 1
x_9_5_6 0
beta_8_5_6 1
x_9_5_7 0
beta_8_5_7 1
x_9_5_8 0
beta_8_5_8 1
x_9_6_7 0
beta_8_6_7 1
x_9_6_8 0
beta_8_6_8 1
x_9_7_8 1
beta_8_7_8 0
x_10_3_4 1
beta_9_3_4 0
x_10_3_5 1
beta_9_3_5 0
x_10_3_6 0
beta_9_3_6 1
x_10_3_7 0
beta_9_3_7 1
x_10_3_8 0
beta_9_3_8 1
x_10_4_5 0
beta_9_4_5 1
x_10_4_6 0
beta_9_4_6 1
x_10_4_7 0
beta_9_4_7 1
x_10_4_8 0
beta_9_4_8 1
x_10_5_6 0
beta_9_5_6 1
x_10_5_7 0
beta_9_5_7 1
x_10_5_8 0
beta_9_5_8 1
x_10_6_7 0
beta_9_6_7 1
x_10_6_8 0
beta_9_6_8 1
x_10_7_8 0
beta_9_7_8 0
x_11_3_4 1
beta_10_3_4 0
x_11_3_5 1
beta_10_3_5 0
x_11_3_6 0
beta_10_3_6 1
x_11_3_7 0
beta_10_3_7 1
x_11_3_8 0
beta_10_3_8 1
x_10_3_9 0
x_11_3_9 0
beta_10_3_9 1
x_11_4_5 0
beta_10_4_5 1
x_11_4_6 0
beta_10_4_6 1
x_11_4_7 0
beta_10_4_7 1
x_11_4_8 0
beta_10_4_8 1
x_10_4_9 0
x_11_4_9 0
beta_10_4_9 1
x_11_5_6 0
beta_10_5_6 1
x_11_5_7 0
beta_10_5_7 1
x_11_5_8 0
beta_10_5_8 1
x_10_5_9 0
x_11_5_9 0
beta_10_5_9 1
x_11_6_7 0
beta_10_6_7 1
x_11_6_8 0
beta_10_6_8 1
x_10_6_9 0
x_11_6_9 0
beta_10_6_9 1
x_11_7_8 0
beta_10_7_8 1
x_10_7_9 0
x_11_7_9 0
beta_10_7_9 1
x_10_8_9 1
x_11_8_9 1
beta_10_8_9 0
x_12_3_4 1
beta_11_3_4 0
x_12_3_5 1
beta_11_3_5 0
x_12_3_7 0
beta_11_3_7 1
x_12_3_8 0
beta_11_3_8 1
x_12_3_9 0
beta_11_3_9 1
x_12_4_5 0
beta_11_4_5 1
x_12_4_7 0
beta_11_4_7 1
x_12_4_8 0
beta_11_4_8 1
x_12_4_9 0
beta_11_4_9 1
x_12_5_7 0
beta_11_5_7 1
x_12_5_8 0
beta_11_5_8 1
x_12_5_9 0
beta_11_5_9 1
x_12_7_8 0
beta_11_7_8 1
x_12_7_9 0
beta_11_7_9 1
x_12_8_9 0
beta_11_8_9 0
x_13_3_4 1
beta_12_3_4 0
x_13_3_5 1
beta_12_3_5 0
x_13_3_7 0
beta_12_3_7 1
x_13_3_8 0
beta_12_3_8 1
x_13_3_9 0
beta_12_3_9 1
x_13_4_5 0
beta_12_4_5 1
x_13_4_7 0
beta_12_4_7 1
x_13_4_8 0
beta_12_4_8 1
x_13_4_9 0
beta_12_4_9 1
x_13_5_7 0
beta_12_5_7 1
x_13_5_8 0
beta_12_5_8 1
x_13_5_9 0
beta_12_5_9 1
x_13_7_8 0
beta_12_7_8 1
x_13_7_9 0
beta_12_7_9 1
x_13_8_9 0
beta_12_8_9 1
x_14_3_4 1
beta_13_3_4 0
x_14_3_5 1
beta_13_3_5 0
x_14_3_7 0
beta_13_3_7 1
x_14_3_8 0
beta_13_3_8 1
x_14_3_9 0
beta_13_3_9 1
x_14_4_5 0
beta_13_4_5 1
x_14_4_7 0
beta_13_4_7 1
x_14_4_8 0
beta_13_4_8 1
x_14_4_9 0
beta_13_4_9 1
x_14_5_7 0
beta_13_5_7 1
x_14_5_8 0
beta_13_5_8 1
x_14_5_9 0
beta_13_5_9 1
x_14_7_8 0
beta_13_7_8 1
x_14_7_9 0
beta_13_7_9 1
x_14_8_9 0
beta_13_8_9 1
x_15_3_4 1
beta_14_3_4 0
x_15_3_5 1
beta_14_3_5 0
x_15_3_7 0
beta_14_3_7 1
x_15_3_8 0
beta_14_3_8 1
x_15_3_9 0
beta_14_3_9 1
x_15_4_5 0
beta_14_4_5 1
x_15_4_7 0
beta_14_4_7 1
x_15_4_8 0
beta_14_4_8 1
x_15_4_9 0
beta_14_4_9 1
x_15_5_7 0
beta_14_5_7 1
x_15_5_8 0
beta_14_5_8 1
x_15_5_9 0
beta_14_5_9 1
x_15_7_8 0
beta_14_7_8 1
x_15_7_9 0
beta_14_7_9 1
x_15_8_9 0
beta_14_8_9 1
x_16_3_4 1
beta_15_3_4 0
x_16_3_5 1
beta_15_3_5 0
x_16_3_7 0
beta_15_3_7 1
x_16_3_8 0
beta_15_3_8 1
x_16_3_9 0
beta_15_3_9 1
x_16_4_5 0
beta_15_4_5 1
x_16_4_7 0
beta_15_4_7 1
x_16_4_8 0
beta_15_4_8 1
x_16_4_9 0
beta_15_4_9 1
x_16_5_7 0
beta_15_5_7 1
x_16_5_8 0
beta_15_5_8 1
x_16_5_9 0
beta_15_5_9 1
x_16_7_8 0
beta_15_7_8 1
x_16_7_9 0
beta_15_7_9 1
x_16_8_9 0
beta_15_8_9 1
x_17_3_4 0
beta_16_3_4 0
x_17_3_5 0
beta_16_3_5 0
x_17_3_7 0
beta_16_3_7 1
x_17_3_8 0
beta_16_3_8 1
x_17_3_9 0
beta_16_3_9 1
x_17_4_5 0
beta_16_4_5 1
x_17_4_7 0
beta_16_4_7 1
x_17_4_8 0
beta_16_4_8 1
x_17_4_9 0
beta_16_4_9 1
x_17_5_7 0
beta_16_5_7 1
x_17_5_8 0
beta_16_5_8 1
x_17_5_9 0
beta_16_5_9 1
x_17_7_8 1
beta_16_7_8 0
x_17_7_9 0
beta_16_7_9 1
x_17_8_9 0
beta_16_8_9 1
x_18_3_4 0
beta_17_3_4 1
x_18_3_5 0
beta_17_3_5 1
x_18_3_7 0
beta_17_3_7 1
x_18_3_8 0
beta_17_3_8 1
x_18_3_9 0
beta_17_3_9 1
x_17_3_10 0
x_18_3_10 0
beta_17_3_10 1
x_18_4_5 0
beta_17_4_5 1
x_18_4_7 0
beta_17_4_7 1
x_18_4_8 0
beta_17_4_8 1
x_18_4_9 0
beta_17_4_9 1
x_17_4_10 0
x_18_4_10 0
beta_17_4_10 1
x_18_5_7 0
beta_17_5_7 1
x_18_5_8 0
beta_17_5_8 1
x_18_5_9 0
beta_17_5_9 1
x_17_5_10 0
x_18_5_10 0
beta_17_5_10 1
x_18_7_8 1
beta_17_7_8 0
x_18_7_9 0
beta_17_7_9 1
x_17_7_10 0
x_18_7_10 0
beta_17_7_10 1
x_18_8_9 0
beta_17_8_9 1
x_17_8_10 0
x_18_8_10 0
beta_17_8_10 1
x_17_9_10 1
x_18_9_10 1
beta_17_9_10 0
x_19_3_4 0
beta_18_3_4 1
x_19_3_5 0
beta_18_3_5 1
x_19_3_7 0
beta_18_3_7 1
x_19_3_8 0
beta_18_3_8 1
x_19_3_9 0
beta_18_3_9 1
x_19_3_10 0
beta_18_3_10 1
x_19_4_5 0
beta_18_4_5 1
x_19_4_7 0
beta_18_4_7 1
x_19_4_8 0
beta_18_4_8 1
x_19_4_9 0
beta_18_4_9 1
x_19_4_10 0
beta_18_4_10 1
x_19_5_7 0
beta_18_5_7 1
x_19_5_8 0
beta_18_5_8 1
x_19_5_9 0
beta_18_5_9 1
x_19_5_10 0
beta_18_5_10 1
x_19_7_8 1
beta_18_7_8 0
x_19_7_9 0
beta_18_7_9 1
x_19_7_10 0
beta_18_7_10 1
x_19_8_9 0
beta_18_8_9 1
x_19_8_10 0
beta_18_8_10 1
x_19_9_10 1
beta_18_9_10 0
x_20_3_4 0
beta_19_3_4 1
x_20_3_5 0
beta_19_3_5 1
x_20_3_7 0
beta_19_3_7 1
x_20_3_8 0
beta_19_3_8 1
x_20_3_9 0
beta_19_3_9 1
x_19_3_11 0
x_20_3_11 0
beta_19_3_11 1
x_20_4_5 0
beta_19_4_5 1
x_20_4_7 0
beta_19_4_7 1
x_20_4_8 0
beta_19_4_8 1
x_20_4_9 0
beta_19_4_9 1
x_19_4_11 0
x_20_4_11 0
beta_19_4_11 1
x_20_5_7 0
beta_19_5_7 1
x_20_5_8 0
beta_19_5_8 1
x_20_5_9 0
beta_19_5_9 1
x_19_5_11 0
x_20_5_11 0
beta_19_5_11 1
x_20_7_8 1
beta_19_7_8 0
x_20_7_9 0
beta_19_7_9 1
x_19_7_11 0
x_20_7_11 0
beta_19_7_11 1
x_20_8_9 0
beta_19_8_9 1
x_19_8_11 0
x_20_8_11 0
beta_19_8_11 1
x_19_9_11 0
x_20_9_11 0
beta_19_9_11 1
x_21_3_4 1
beta_20_3_4 0
x_21_3_5 1
beta_20_3_5 0
x_21_3_7 0
beta_20_3_7 1
x_21_3_8 0
beta_20_3_8 1
x_21_3_9 0
beta_20_3_9 1
x_21_3_11 0
beta_20_3_11 1
x_21_4_5 0
beta_20_4_5 1
x_21_4_7 0
beta_20_4_7 1
x_21_4_8 0
beta_20_4_8 1
x_21_4_9 0
beta_20_4_9 1
x_21_4_11 0
beta_20_4_11 1
x_21_5_7 0
beta_20_5_7 1
x_21_5_8 0
beta_20_5_8 1
x_21_5_9 0
beta_20_5_9 1
x_21_5_11 0
beta_20_5_11 1
x_21_7_8 0
beta_20_7_8 0
x_21_7_9 0
beta_20_7_9 1
x_21_7_11 0
beta_20_7_11 1
x_21_8_9 1
beta_20_8_9 0
x_21_8_11 1
beta_20_8_11 0
x_21_9_11 0
beta_20_9_11 1
x_22_3_4 1
beta_21_3_4 0
x_22_3_5 1
beta_21_3_5 0
x_22_3_7 0
beta_21_3_7 1
x_22_3_8 0
beta_21_3_8 1
x_22_3_9 0
beta_21_3_9 1
x_22_3_11 0
beta_21_3_11 1
x_22_4_5 0
beta_21_4_5 1
x_22_4_7 0
beta_21_4_7 1
x_22_4_8 0
beta_21_4_8 1
x_22_4_9 0
beta_21_4_9 1
x_22_4_11 0
beta_21_4_11 1
x_22_5_7 0
beta_21_5_7 1
x_22_5_8 0
beta_21_5_8 1
x_22_5_9 0
beta_21_5_9 1
x_22_5_11 0
beta_21_5_11 1
x_22_7_8 0
beta_21_7_8 1
x_22_7_9 0
beta_21_7_9 1
x_22_7_11 0
beta_21_7_11 1
x_22_8_9 1
beta_21_8_9 0
x_22_8_11 1
beta_21_8_11 0
x_22_9_11 0
beta_21_9_11 1
x_23_3_4 1
beta_22_3_4 0
x_23_3_5 1
beta_22_3_5 0
x_23_3_7 0
beta_22_3_7 1
x_23_3_8 0
beta_22_3_8 1
x_23_3_11 0
beta_22_3_11 1
x_22_3_13 1
x_23_3_13 1
beta_22_3_13 0
x_23_4_5 0
beta_22_4_5 1
x_23_4_7 0
beta_22_4_7 1
x_23_4_8 0
beta_22_4_8 1
x_23_4_11 0
beta_22_4_11 1
x_22_4_13 0
x_23_4_13 0
beta_22_4_13 1
x_23_5_7 0
beta_22_5_7 1
x_23_5_8 0
beta_22_5_8 1
x_23_5_11 0
beta_22_5_11 1
x_22_5_13 0
x_23_5_13 0
beta_22_5_13 1
x_23_7_8 0
beta_22_7_8 1
x_23_7_11 0
beta_22_7_11 1
x_22_7_13 1
x_23_7_13 1
beta_22_7_13 0
x_23_8_11 0
beta_22_8_11 0
x_22_8_13 1
x_23_8_13 1
beta_22_8_13 0
x_22_11_13 1
x_23_11_13 1
beta_22_11_13 0
x_24_3_4 1
beta_23_3_4 0
x_24_3_5 1
beta_23_3_5 0
x_24_3_7 0
beta_23_3_7 1
x_24_3_8 0
beta_23_3_8 1
x_24_3_11 0
beta_23_3_11 1
x_24_3_13 1
beta_23_3_13 0
x_24_4_5 0
beta_23_4_5 1
x_24_4_7 0
beta_23_4_7 1
x_24_4_8 0
beta_23_4_8 1
x_24_4_11 0
beta_23_4_11 1
x_24_4_13 1
beta_23_4_13 0
x_24_5_7 0
beta_23_5_7 1
x_24_5_8 0
beta_23_5_8 1
x_24_5_11 0
beta_23_5_11 1
x_24_5_13 1
beta_23_5_13 0
x_24_7_8 0
beta_23_7_8 1
x_24_7_11 0
beta_23_7_11 1
x_24_7_13 1
beta_23_7_13 0
x_24_8_11 0
beta_23_8_11 1
x_24_8_13 1
beta_23_8_13 0
x_24_11_13 1
beta_23_11_13 0
x_25_3_4 1
beta_24_3_4 0
x_25_3_5 0
beta_24_3_5 0
x_25_3_7 0
beta_24_3_7 1
x_25_3_8 0
beta_24_3_8 1
x_25_3_11 0
beta_24_3_11 1
x_25_3_13 1
beta_24_3_13 0
x_25_4_5 0
beta_24_4_5 1
x_25_4_7 0
beta_24_4_7 1
x_25_4_8 0
beta_24_4_8 1
x_25_4_11 0
beta_24_4_11 1
x_25_4_13 1
beta_24_4_13 0
x_25_5_7 0
beta_24_5_7 1
x_25_5_8 0
beta_24_5_8 1
x_25_5_11 0
beta_24_5_11 1
x_25_5_13 1
beta_24_5_13 0
x_25_7_8 0
beta_24_7_8 1
x_25_7_11 0
beta_24_7_11 1
x_25_7_13 1
beta_24_7_13 0
x_25_8_11 0
beta_24_8_11 1
x_25_8_13 1
beta_24_8_13 0
x_25_11_13 1
beta_24_11_13 0
x_26_3_4 1
beta_25_3_4 0
x_26_3_5 0
beta_25_3_5 1
x_26_3_7 0
beta_25_3_7 1
x_26_3_8 0
beta_25_3_8 1
x_26_3_11 0
beta_25_3_11 1
x_26_3_13 1
beta_25_3_13 0
x_26_4_5 0
beta_25_4_5 1
x_26_4_7 0
beta_25_4_7 1
x_26_4_8 0
beta_25_4_8 1
x_26_4_11 0
beta_25_4_11 1
x_26_4_13 1
beta_25_4_13 0
x_26_5_7 0
beta_25_5_7 1
x_26_5_8 0
beta_25_5_8 1
x_26_5_11 0
beta_25_5_11 1
x_26_5_13 1
beta_25_5_13 0
x_26_7_8 0
beta_25_7_8 1
x_26_7_11 0
beta_25_7_11 1
x_26_7_13 1
beta_25_7_13 0
x_26_8_11 0
beta_25_8_11 1
x_26_8_13 1
beta_25_8_13 0
x_26_11_13 1
beta_25_11_13 0
x_27_3_4 1
beta_26_3_4 0
x_27_3_5 0
beta_26_3_5 1
x_27_3_7 0
beta_26_3_7 1
x_27_3_8 0
beta_26_3_8 1
x_27_3_11 0
beta_26_3_11 1
x_27_3_13 1
beta_26_3_13 0
x_27_4_5 0
beta_26_4_5 1
x_27_4_7 0
beta_26_4_7 1
x_27_4_8 0
beta_26_4_8 1
x_27_4_11 0
beta_26_4_11 1
x_27_4_13 1
beta_26_4_13 0
x_27_5_7 0
beta_26_5_7 1
x_27_5_8 0
beta_26_5_8 1
x_27_5_11 0
beta_26_5_11 1
x_27_5_13 1
beta_26_5_13 0
x_27_7_8 0
beta_26_7_8 1
x_27_7_11 0
beta_26_7_11 1
x_27_7_13 1
beta_26_7_13 0
x_27_8_11 0
beta_26_8_11 1
x_27_8_13 1
beta_26_8_13 0
x_27_11_13 1
beta_26_11_13 0
x_28_3_4 0
beta_27_3_4 0
x_28_3_5 0
beta_27_3_5 1
x_28_3_7 0
beta_27_3_7 1
x_28_3_8 0
beta_27_3_8 1
x_28_3_11 0
beta_27_3_11 1
x_28_3_13 1
beta_27_3_13 0
x_28_4_5 0
beta_27_4_5 1
x_28_4_7 0
beta_27_4_7 1
x_28_4_8 0
beta_27_4_8 1
x_28_4_11 0
beta_27_4_11 1
x_28_4_13 1
beta_27_4_13 0
x_28_5_7 0
beta_27_5_7 1
x_28_5_8 0
beta_27_5_8 1
x_28_5_11 0
beta_27_5_11 1
x_28_5_13 1
beta_27_5_13 0
x_28_7_8 0
beta_27_7_8 1
x_28_7_11 0
beta_27_7_11 1
x_28_7_13 1
beta_27_7_13 0
x_28_8_11 0
beta_27_8_11 1
x_28_8_13 1
beta_27_8_13 0
x_28_11_13 1
beta_27_11_13 0
x_29_4_5 0
beta_28_4_5 1
x_29_4_7 0
beta_28_4_7 1
x_29_4_8 0
beta_28_4_8 1
x_29_4_11 0
beta_28_4_11 1
x_29_4_13 1
beta_28_4_13 0
x_29_5_7 0
beta_28_5_7 1
x_29_5_8 0
beta_28_5_8 1
x_29_5_11 0
beta_28_5_11 1
x_29_5_13 1
beta_28_5_13 0
x_29_7_8 0
beta_28_7_8 1
x_29_7_11 0
beta_28_7_11 1
x_29_7_13 1
beta_28_7_13 0
x_29_8_11 0
beta_28_8_11 1
x_29_8_13 1
beta_28_8_13 0
x_29_11_13 1
beta_28_11_13 0
x_30_4_5 0
beta_29_4_5 1
x_30_4_7 0
beta_29_4_7 1
x_30_4_8 0
beta_29_4_8 1
x_30_4_11 0
beta_29_4_11 1
x_30_4_13 1
beta_29_4_13 0
x_30_5_7 0
beta_29_5_7 1
x_30_5_8 0
beta_29_5_8 1
x_30_5_11 0
beta_29_5_11 1
x_30_5_13 1
beta_29_5_13 0
x_30_7_8 0
beta_29_7_8 1
x_30_7_11 0
beta_29_7_11 1
x_30_7_13 1
beta_29_7_13 0
x_30_8_11 0
beta_29_8_11 1
x_30_8_13 1
beta_29_8_13 0
x_30_11_13 1
beta_29_11_13 0
x_31_4_5 0
beta_30_4_5 1
x_31_4_7 0
beta_30_4_7 1
x_31_4_8 0
beta_30_4_8 1
x_31_4_11 0
beta_30_4_11 1
x_31_4_13 1
beta_30_4_13 0
x_31_5_7 0
beta_30_5_7 1
x_31_5_8 0
beta_30_5_8 1
x_31_5_11 0
beta_30_5_11 1
x_31_5_13 1
beta_30_5_13 0
x_31_7_8 0
beta_30_7_8 1
x_31_7_11 0
beta_30_7_11 1
x_31_7_13 1
beta_30_7_13 0
x_31_8_11 0
beta_30_8_11 1
x_31_8_13 1
beta_30_8_13 0
x_31_11_13 1
beta_30_11_13 0
x_32_4_5 0
beta_31_4_5 1
x_32_4_7 0
beta_31_4_7 1
x_32_4_8 0
beta_31_4_8 1
x_32_4_13 1
beta_31_4_13 0
x_32_5_7 0
beta_31_5_7 1
x_32_5_8 0
beta_31_5_8 1
x_32_5_13 1
beta_31_5_13 0
x_32_7_8 0
beta_31_7_8 1
x_32_7_13 1
beta_31_7_13 0
x_32_8_13 1
beta_31_8_13 0
x_33_4_5 0
beta_32_4_5 1
x_33_4_7 0
beta_32_4_7 1
x_33_4_8 0
beta_32_4_8 1
x_33_4_13 1
beta_32_4_13 0
x_33_5_7 0
beta_32_5_7 1
x_33_5_8 0
beta_32_5_8 1
x_33_5_13 1
beta_32_5_13 0
x_33_7_8 0
beta_32_7_8 1
x_33_7_13 1
beta_32_7_13 0
x_33_8_13 1
beta_32_8_13 0
x_34_5_7 0
beta_33_5_7 1
x_34_5_8 0
beta_33_5_8 1
x_34_5_13 1
beta_33_5_13 0
x_34_7_8 0
beta_33_7_8 1
x_34_7_13 1
beta_33_7_13 0
x_34_8_13 1
beta_33_8_13 0
x_35_5_7 0
beta_34_5_7 1
x_35_5_8 0
beta_34_5_8 1
x_35_5_13 1
beta_34_5_13 0
x_35_7_8 0
beta_34_7_8 1
x_35_7_13 1
beta_34_7_13 0
x_35_8_13 1
beta_34_8_13 0
x_36_5_7 0
beta_35_5_7 1
x_36_5_8 0
beta_35_5_8 1
x_36_5_13 1
beta_35_5_13 0
x_36_7_8 0
beta_35_7_8 1
x_36_7_13 1
beta_35_7_13 0
x_36_8_13 1
beta_35_8_13 0
x_37_5_7 0
beta_36_5_7 1
x_37_5_8 0
beta_36_5_8 1
x_37_5_13 0
beta_36_5_13 0
x_36_5_16 0
x_37_5_16 0
beta_36_5_16 1
x_37_7_8 0
beta_36_7_8 1
x_37_7_13 1
beta_36_7_13 0
x_36_7_16 0
x_37_7_16 0
beta_36_7_16 1
x_37_8_13 1
beta_36_8_13 0
x_36_8_16 0
x_37_8_16 0
beta_36_8_16 1
x_36_13_16 0
x_37_13_16 0
beta_36_13_16 1
x_38_5_7 0
beta_37_5_7 1
x_38_5_8 0
beta_37_5_8 1
x_38_5_16 0
beta_37_5_16 1
x_38_7_8 0
beta_37_7_8 1
x_38_7_16 0
beta_37_7_16 1
x_38_8_16 0
beta_37_8_16 1
b_0 13
x_0_0_1 0
x_1_0_2 0
b_1 13
delta_0_0 1
b_2 14
delta_1_0 1
x_1_3_0 1
x_1_3_2 1
x_2_3_0 1
delta_1_3 1
x_1_4_0 1
x_1_4_2 1
x_1_4_3 0
x_2_4_0 1
x_2_4_3 0
delta_1_4 1
x_1_5_0 1
x_1_5_2 0
x_1_5_3 0
x_1_5_4 0
x_2_5_0 0
x_2_5_3 0
x_2_5_4 0
delta_1_5 1
x_1_6_0 1
x_1_6_2 1
x_1_6_3 1
x_1_6_4 1
x_1_6_5 1
x_2_6_0 1
x_2_6_3 1
x_2_6_4 1
x_2_6_5 1
delta_1_6 1
x_1_7_0 1
x_1_7_2 1
x_1_7_3 1
x_1_7_4 1
x_1_7_5 1
x_1_7_6 1
x_2_7_0 1
x_2_7_3 1
x_2_7_4 1
x_2_7_5 1
x_2_7_6 1
delta_1_7 1
x_1_8_0 1
x_1_8_2 1
x_1_8_3 1
x_1_8_4 1
x_1_8_5 1
x_1_8_6 1
x_1_8_7 1
x_2_8_0 1
x_2_8_3 1
x_2_8_4 1
x_2_8_5 1
x_2_8_6 1
x_2_8_7 1
delta_1_8 1
b_3 14
delta_2_0 1
x_3_3_0 1
delta_2_3 1
x_3_4_0 1
x_3_4_3 0
delta_2_4 1
x_3_5_0 0
x_3_5_3 0
x_3_5_4 0
delta_2_5 1
x_3_6_0 1
x_3_6_3 1
x_3_6_4 1
x_3_6_5 1
delta_2_6 1
x_3_7_0 1
x_3_7_3 1
x_3_7_4 1
x_3_7_5 1
x_3_7_6 1
delta_2_7 1
x_3_8_0 1
x_3_8_3 1
x_3_8_4 1
x_3_8_5 1
x_3_8_6 1
x_3_8_7 1
delta_2_8 1
b_4 14
delta_3_0 9.4117647058823528e-01
x_4_3_0 1
delta_3_3 1
x_4_4_0 1
x_4_4_3 0
delta_3_4 1
x_4_5_0 1
x_4_5_3 0
x_4_5_4 0
delta_3_5 1
x_4_6_0 1
x_4_6_3 1
x_4_6_4 1
x_4_6_5 1
delta_3_6 1
x_4_7_0 1
x_4_7_3 1
x_4_7_4 1
x_4_7_5 1
x_4_7_6 1
delta_3_7 1
x_4_8_0 1
x_4_8_3 1
x_4_8_4 1
x_4_8_5 1
x_4_8_6 1
x_4_8_7 1
delta_3_8 1
b_5 14
delta_4_0 1
x_5_3_0 1
delta_4_3 1
x_5_4_0 1
x_5_4_3 0
delta_4_4 1
x_5_5_0 1
x_5_5_3 0
x_5_5_4 0
delta_4_5 1
x_5_6_0 1
x_5_6_3 1
x_5_6_4 1
x_5_6_5 1
delta_4_6 1
x_5_7_0 1
x_5_7_3 1
x_5_7_4 1
x_5_7_5 1
x_5_7_6 1
delta_4_7 1
x_5_8_0 1
x_5_8_3 1
x_5_8_4 1
x_5_8_5 1
x_5_8_6 1
x_5_8_7 1
delta_4_8 1
b_6 14
delta_5_0 1
x_6_3_0 1
delta_5_3 1
x_6_4_0 1
x_6_4_3 0
delta_5_4 1
x_6_5_0 1
x_6_5_3 0
x_6_5_4 0
delta_5_5 1
x_6_6_0 1
x_6_6_3 1
x_6_6_4 1
x_6_6_5 1
delta_5_6 1
x_6_7_0 1
x_6_7_3 1
x_6_7_4 1
x_6_7_5 1
x_6_7_6 1
delta_5_7 1
x_6_8_0 1
x_6_8_3 1
x_6_8_4 1
x_6_8_5 1
x_6_8_6 1
x_6_8_7 1
delta_5_8 1
b_7 14
delta_6_0 1
x_7_3_0 1
delta_6_3 1
x_7_4_0 1
x_7_4_3 0
delta_6_4 9.4117647058823528e-01
x_7_5_0 1
x_7_5_3 1
x_7_5_4 1
delta_6_5 1
x_7_6_0 1
x_7_6_3 1
x_7_6_4 1
x_7_6_5 0
delta_6_6 1
x_7_7_0 1
x_7_7_3 1
x_7_7_4 1
x_7_7_5 1
x_7_7_6 1
delta_6_7 1
x_7_8_0 1
x_7_8_3 0
x_7_8_4 1
x_7_8_5 0
x_7_8_6 0
x_7_8_7 0
delta_6_8 7.6470588235294112e-01
b_8 14
delta_7_0 1
x_8_3_0 1
delta_7_3 1
x_8_4_0 0
x_8_4_3 0
delta_7_4 1
x_8_5_0 0
x_8_5_3 0
x_8_5_4 0
delta_7_5 7.0588235294117641e-01
x_8_6_0 1
x_8_6_3 1
x_8_6_4 1
x_8_6_5 1
delta_7_6 1
x_8_7_0 1
x_8_7_3 1
x_8_7_4 1
x_8_7_5 1
x_8_7_6 1
delta_7_7 1
x_8_8_0 1
x_8_8_3 1
x_8_8_4 1
x_8_8_5 1
x_8_8_6 1
x_8_8_7 0
delta_7_8 1
b_9 15
delta_8_3 1
x_9_4_3 0
delta_8_4 1
x_9_5_3 0
x_9_5_4 1
delta_8_5 1
x_9_6_3 1
x_9_6_4 1
x_9_6_5 1
delta_8_6 1
x_9_7_3 1
x_9_7_4 1
x_9_7_5 1
x_9_7_6 1
delta_8_7 1
x_9_8_3 1
x_9_8_4 1
x_9_8_5 1
x_9_8_6 1
x_9_8_7 0
delta_8_8 1
b_10 15
delta_9_3 1
x_10_4_3 0
delta_9_4 1
x_10_5_3 0
x_10_5_4 1
delta_9_5 1
x_10_6_3 1
x_10_6_4 1
x_10_6_5 1
delta_9_6 1
x_10_7_3 1
x_10_7_4 1
x_10_7_5 1
x_10_7_6 1
delta_9_7 9.4117647058823528e-01
x_10_8_3 1
x_10_8_4 1
x_10_8_5 1
x_10_8_6 1
x_10_8_7 1
delta_9_8 1
b_11 15
delta_10_3 1
x_11_4_3 0
delta_10_4 1
x_11_5_3 0
x_11_5_4 1
delta_10_5 1
x_11_6_3 1
x_11_6_4 1
x_11_6_5 1
delta_10_6 1
x_11_7_3 1
x_11_7_4 1
x_11_7_5 1
x_11_7_6 1
delta_10_7 1
x_11_8_3 1
x_11_8_4 1
x_11_8_5 1
x_11_8_6 1
x_11_8_7 1
delta_10_8 1
x_10_9_3 1
x_10_9_4 1
x_10_9_5 1
x_10_9_6 1
x_10_9_7 1
x_10_9_8 0
x_11_9_3 1
x_11_9_4 1
x_11_9_5 1
x_11_9_6 1
x_11_9_7 1
x_11_9_8 0
delta_10_9 1
b_12 15
delta_11_3 1
x_12_4_3 0
delta_11_4 1
x_12_5_3 0
x_12_5_4 1
delta_11_5 1
x_12_7_3 1
x_12_7_4 1
x_12_7_5 1
delta_11_7 9.4117647058823528e-01
x_12_8_3 1
x_12_8_4 1
x_12_8_5 1
x_12_8_7 1
delta_11_8 8.8235294117647056e-01
x_12_9_3 1
x_12_9_4 1
x_12_9_5 1
x_12_9_7 1
x_12_9_8 1
delta_11_9 1
b_13 15
delta_12_3 1
x_13_4_3 0
delta_12_4 1
x_13_5_3 0
x_13_5_4 1
delta_12_5 1
x_13_7_3 1
x_13_7_4 1
x_13_7_5 1
delta_12_7 9.7058823529411764e-01
x_13_8_3 1
x_13_8_4 1
x_13_8_5 1
x_13_8_7 1
delta_12_8 1
x_13_9_3 1
x_13_9_4 1
x_13_9_5 1
x_13_9_7 1
x_13_9_8 1
delta_12_9 1
b_14 15
delta_13_3 1
x_14_4_3 0
delta_13_4 1
x_14_5_3 0
x_14_5_4 1
delta_13_5 1
x_14_7_3 1
x_14_7_4 1
x_14_7_5 1
delta_13_7 1
x_14_8_3 1
x_14_8_4 1
x_14_8_5 1
x_14_8_7 1
delta_13_8 1
x_14_9_3 1
x_14_9_4 1
x_14_9_5 1
x_14_9_7 1
x_14_9_8 1
delta_13_9 1
b_15 15
delta_14_3 1
x_15_4_3 0
delta_14_4 1
x_15_5_3 0
x_15_5_4 1
delta_14_5 1
x_15_7_3 1
x_15_7_4 1
x_15_7_5 1
delta_14_7 1
x_15_8_3 1
x_15_8_4 1
x_15_8_5 1
x_15_8_7 1
delta_14_8 1
x_15_9_3 1
x_15_9_4 1
x_15_9_5 1
x_15_9_7 1
x_15_9_8 1
delta_14_9 1
b_16 15
delta_15_3 1
x_16_4_3 0
delta_15_4 1
x_16_5_3 0
x_16_5_4 1
delta_15_5 1
x_16_7_3 1
x_16_7_4 1
x_16_7_5 1
delta_15_7 1
x_16_8_3 1
x_16_8_4 1
x_16_8_5 1
x_16_8_7 1
delta_15_8 1
x_16_9_3 1
x_16_9_4 1
x_16_9_5 1
x_16_9_7 1
x_16_9_8 1
delta_15_9 1
b_17 14
delta_16_3 8.2352941176470584e-01
x_17_4_3 1
delta_16_4 1
x_17_5_3 1
x_17_5_4 1
delta_16_5 1
x_17_7_3 1
x_17_7_4 1
x_17_7_5 1
delta_16_7 1
x_17_8_3 1
x_17_8_4 1
x_17_8_5 1
x_17_8_7 0
delta_16_8 8.8235294117647056e-01
x_17_9_3 1
x_17_9_4 1
x_17_9_5 1
x_17_9_7 1
x_17_9_8 1
delta_16_9 1
b_18 14
delta_17_3 1
x_18_4_3 1
delta_17_4 1
x_18_5_3 1
x_18_5_4 1
delta_17_5 1
x_18_7_3 1
x_18_7_4 1
x_18_7_5 1
delta_17_7 1
x_18_8_3 1
x_18_8_4 1
x_18_8_5 1
x_18_8_7 0
delta_17_8 1
x_18_9_3 1
x_18_9_4 1
x_18_9_5 1
x_18_9_7 1
x_18_9_8 1
delta_17_9 1
x_17_10_3 1
x_17_10_4 1
x_17_10_5 1
x_17_10_7 1
x_17_10_8 1
x_17_10_9 0
x_18_10_3 1
x_18_10_4 1
x_18_10_5 1
x_18_10_7 1
x_18_10_8 1
x_18_10_9 0
delta_17_10 1
b_19 14
delta_18_3 1
x_19_4_3 1
delta_18_4 1
x_19_5_3 1
x_19_5_4 1
delta_18_5 1
x_19_7_3 1
x_19_7_4 1
x_19_7_5 1
delta_18_7 1
x_19_8_3 1
x_19_8_4 1
x_19_8_5 1
x_19_8_7 0
delta_18_8 1
x_19_9_3 1
x_19_9_4 1
x_19_9_5 1
x_19_9_7 1
x_19_9_8 1
delta_18_9 1
x_19_10_3 1
x_19_10_4 1
x_19_10_5 1
x_19_10_7 1
x_19_10_8 1
x_19_10_9 0
x_19_10_11 0
delta_18_10 1
x_20_3_12 0
b_20 13
delta_19_3 9.4117647058823528e-01
x_20_4_3 1
x_20_4_12 1
delta_19_4 1
x_20_5_3 1
x_20_5_4 1
x_20_5_12 1
delta_19_5 1
x_20_7_3 1
x_20_7_4 1
x_20_7_5 1
x_20_7_12 1
delta_19_7 1
x_20_8_3 1
x_20_8_4 1
x_20_8_5 1
x_20_8_7 0
x_20_8_12 1
delta_19_8 1
x_20_9_3 1
x_20_9_4 1
x_20_9_5 1
x_20_9_7 1
x_20_9_8 1
x_20_9_12 1
delta_19_9 9.4117647058823528e-01
x_19_11_3 1
x_19_11_4 1
x_19_11_5 1
x_19_11_7 1
x_19_11_8 1
x_19_11_9 1
x_19_11_10 1
x_20_11_3 1
x_20_11_4 1
x_20_11_5 1
x_20_11_7 1
x_20_11_8 1
x_20_11_9 1
x_20_11_12 1
delta_19_11 9.4117647058823528e-01
b_21 15
delta_20_3 1
x_21_4_3 0
delta_20_4 1
x_21_5_3 0
x_21_5_4 1
delta_20_5 1
x_21_7_3 1
x_21_7_4 1
x_21_7_5 1
delta_20_7 1
x_21_8_3 1
x_21_8_4 1
x_21_8_5 1
x_21_8_7 1
delta_20_8 1
x_21_9_3 1
x_21_9_4 1
x_21_9_5 1
x_21_9_7 1
x_21_9_8 0
delta_20_9 1
x_21_11_3 1
x_21_11_4 1
x_21_11_5 1
x_21_11_7 1
x_21_11_8 0
x_21_11_9 1
delta_20_11 1
b_22 14
delta_21_3 1
x_22_4_3 0
delta_21_4 9.4117647058823528e-01
x_22_5_3 0
x_22_5_4 1
delta_21_5 9.4117647058823528e-01
x_22_7_3 1
x_22_7_4 1
x_22_7_5 1
delta_21_7 1
x_22_8_3 1
x_22_8_4 1
x_22_8_5 1
x_22_8_7 1
delta_21_8 1
x_22_9_3 1
x_22_9_4 1
x_22_9_5 1
x_22_9_7 1
x_22_9_8 0
x_22_9_13 1
delta_21_9 1
x_22_11_3 1
x_22_11_4 1
x_22_11_5 1
x_22_11_7 1
x_22_11_8 0
x_22_11_9 1
delta_21_11 1
b_23 14
delta_22_3 1
x_23_4_3 0
delta_22_4 1
x_23_5_3 0
x_23_5_4 1
delta_22_5 1
x_23_7_3 1
x_23_7_4 1
x_23_7_5 1
delta_22_7 1
x_23_8_3 1
x_23_8_4 1
x_23_8_5 1
x_23_8_7 1
delta_22_8 8.8235294117647056e-01
x_23_11_3 1
x_23_11_4 1
x_23_11_5 1
x_23_11_7 1
x_23_11_8 1
delta_22_11 1
x_22_13_3 0
x_22_13_4 1
x_22_13_5 1
x_22_13_7 0
x_22_13_8 0
x_22_13_9 0
x_22_13_11 0
x_23_13_3 0
x_23_13_4 1
x_23_13_5 1
x_23_13_7 0
x_23_13_8 0
x_23_13_11 0
delta_22_13 1
b_24 14
delta_23_3 1
x_24_4_3 0
delta_23_4 1
x_24_5_3 0
x_24_5_4 1
delta_23_5 1
x_24_7_3 1
x_24_7_4 1
x_24_7_5 1
delta_23_7 1
x_24_8_3 1
x_24_8_4 1
x_24_8_5 1
x_24_8_7 1
delta_23_8 1
x_24_11_3 1
x_24_11_4 1
x_24_11_5 1
x_24_11_7 1
x_24_11_8 1
delta_23_11 1
x_24_13_3 0
x_24_13_4 0
x_24_13_5 0
x_24_13_7 0
x_24_13_8 0
x_24_13_11 0
delta_23_13 8.8235294117647056e-01
b_25 14
delta_24_3 9.4117647058823528e-01
x_25_4_3 0
delta_24_4 1
x_25_5_3 1
x_25_5_4 1
delta_24_5 1
x_25_7_3 1
x_25_7_4 1
x_25_7_5 1
delta_24_7 1
x_25_8_3 1
x_25_8_4 1
x_25_8_5 1
x_25_8_7 1
delta_24_8 1
x_25_11_3 1
x_25_11_4 1
x_25_11_5 1
x_25_11_7 1
x_25_11_8 1
delta_24_11 1
x_25_13_3 0
x_25_13_4 0
x_25_13_5 0
x_25_13_7 0
x_25_13_8 0
x_25_13_11 0
delta_24_13 1
b_26 14
delta_25_3 1
x_26_4_3 0
delta_25_4 1
x_26_5_3 1
x_26_5_4 1
delta_25_5 1
x_26_7_3 1
x_26_7_4 1
x_26_7_5 1
delta_25_7 1
x_26_8_3 1
x_26_8_4 1
x_26_8_5 1
x_26_8_7 1
delta_25_8 1
x_26_11_3 1
x_26_11_4 1
x_26_11_5 1
x_26_11_7 1
x_26_11_8 1
delta_25_11 1
x_26_13_3 0
x_26_13_4 0
x_26_13_5 0
x_26_13_7 0
x_26_13_8 0
x_26_13_11 0
delta_25_13 1
b_27 14
delta_26_3 1
x_27_4_3 0
delta_26_4 1
x_27_5_3 1
x_27_5_4 1
delta_26_5 1
x_27_7_3 1
x_27_7_4 1
x_27_7_5 1
delta_26_7 1
x_27_8_3 1
x_27_8_4 1
x_27_8_5 1
x_27_8_7 1
delta_26_8 1
x_27_11_3 1
x_27_11_4 1
x_27_11_5 1
x_27_11_7 1
x_27_11_8 1
delta_26_11 1
x_27_13_3 0
x_27_13_4 0
x_27_13_5 0
x_27_13_7 0
x_27_13_8 0
x_27_13_11 0
delta_26_13 1
b_28 14
delta_27_3 9.4117647058823528e-01
x_28_4_3 1
delta_27_4 1
x_28_5_3 1
x_28_5_4 1
delta_27_5 1
x_28_7_3 1
x_28_7_4 1
x_28_7_5 1
delta_27_7 1
x_28_8_3 1
x_28_8_4 1
x_28_8_5 1
x_28_8_7 1
delta_27_8 1
x_28_11_3 1
x_28_11_4 1
x_28_11_5 1
x_28_11_7 1
x_28_11_8 1
delta_27_11 1
x_28_13_3 0
x_28_13_4 0
x_28_13_5 0
x_28_13_7 0
x_28_13_8 0
x_28_13_11 0
delta_27_13 1
b_29 15
delta_28_4 1
x_29_5_4 1
delta_28_5 1
x_29_7_4 1
x_29_7_5 1
delta_28_7 1
x_29_8_4 1
x_29_8_5 1
x_29_8_7 1
delta_28_8 1
x_29_11_4 1
x_29_11_5 1
x_29_11_7 1
x_29_11_8 1
delta_28_11 1
x_29_13_4 0
x_29_13_5 0
x_29_13_7 0
x_29_13_8 0
x_29_13_11 0
delta_28_13 1
x_30_4_14 0
b_30 15
delta_29_4 1
x_30_5_4 1
x_30_5_14 0
delta_29_5 1
x_30_7_4 1
x_30_7_5 1
x_30_7_14 0
delta_29_7 1
x_30_8_4 1
x_30_8_5 1
x_30_8_7 1
x_30_8_14 0
delta_29_8 1
x_30_11_4 1
x_30_11_5 1
x_30_11_7 1
x_30_11_8 1
x_30_11_14 1
delta_29_11 1
x_30_13_4 0
x_30_13_5 0
x_30_13_7 0
x_30_13_8 0
x_30_13_11 0
x_30_13_14 0
delta_29_13 1
b_31 15
delta_30_4 1
x_31_5_4 1
delta_30_5 1
x_31_7_4 1
x_31_7_5 1
delta_30_7 1
x_31_8_4 1
x_31_8_5 1
x_31_8_7 1
delta_30_8 1
x_31_11_4 1
x_31_11_5 1
x_31_11_7 1
x_31_11_8 1
delta_30_11 9.4117647058823528e-01
x_31_13_4 0
x_31_13_5 0
x_31_13_7 0
x_31_13_8 0
x_31_13_11 0
delta_30_13 1
b_32 15
delta_31_4 1
x_32_5_4 1
delta_31_5 1
x_32_7_4 1
x_32_7_5 1
delta_31_7 1
x_32_8_4 1
x_32_8_5 1
x_32_8_7 1
delta_31_8 1
x_32_13_4 0
x_32_13_5 0
x_32_13_7 0
x_32_13_8 0
delta_31_13 1
b_33 15
delta_32_4 1
x_33_5_4 1
delta_32_5 1
x_33_7_4 1
x_33_7_5 1
delta_32_7 1
x_33_8_4 1
x_33_8_5 1
x_33_8_7 1
delta_32_8 1
x_33_13_4 0
x_33_13_5 0
x_33_13_7 0
x_33_13_8 0
delta_32_13 1
x_34_5_15 0
b_34 16
delta_33_5 1
x_34_7_5 1
x_34_7_15 0
delta_33_7 1
x_34_8_5 1
x_34_8_7 1
x_34_8_15 0
delta_33_8 1
x_34_13_5 0
x_34_13_7 0
x_34_13_8 0
x_34_13_15 0
delta_33_13 1
b_35 16
delta_34_5 1
x_35_7_5 1
delta_34_7 1
x_35_8_5 1
x_35_8_7 1
delta_34_8 1
x_35_13_8 0
x_35_13_5 0
x_35_13_7 0
delta_34_13 1
b_36 16
delta_35_5 1
x_36_7_5 1
delta_35_7 1
x_36_8_5 1
x_36_8_7 1
delta_35_8 1
x_36_13_5 0
x_36_13_7 0
x_36_13_8 0
delta_35_13 1
b_37 16
delta_36_5 9.4117647058823528e-01
x_37_7_5 1
delta_36_7 1
x_37_8_5 1
x_37_8_7 1
delta_36_8 1
x_37_13_5 1
x_37_13_7 0
x_37_13_8 0
delta_36_13 1
x_36_16_5 1
x_36_16_7 1
x_36_16_8 1
x_36_16_13 1
x_37_16_5 1
x_37_16_7 1
x_37_16_8 1
x_37_16_13 1
delta_36_16 1
b_38 17
delta_37_5 1
x_38_7_5 1
delta_37_7 1
x_38_8_5 1
x_38_8_7 1
delta_37_8 1
x_38_16_8 1
x_38_16_5 1
x_38_16_7 1
delta_37_16 1
x_0_1_0 1
x_1_2_0 1
x_1_2_3 0
x_1_2_4 0
x_1_2_5 1
x_1_2_6 0
x_1_2_7 0
x_1_2_8 0
x_20_12_3 1
x_20_12_4 0
x_20_12_5 0
x_20_12_7 0
x_20_12_8 0
x_20_12_9 0
x_20_12_11 0
x_30_14_4 1
x_30_14_5 1
x_30_14_7 1
x_30_14_8 1
x_30_14_11 0
x_30_14_13 1
x_34_15_5 1
x_34_15_7 1
x_34_15_8 1
x_34_15_13 1
